
Gurobi 9.5.0 (linux64) logging started Thu Dec  7 22:26:05 2023

Set parameter LogFile to value "/lustre1/scratch/348/vsc34888/JointResearch/05.Models/06.Benchmarking/B.Operation_cost/RTS24_mod1_ByStages_nc10/openStarNet_RTS24_mod1_ByStages_nc10.log"
Set parameter Method to value 2
Set parameter MIPFocus to value 1
Set parameter Presolve to value 2
Set parameter RINS to value 100
Set parameter MIPGap to value 0.01
Set parameter Threads to value 36
Set parameter TimeLimit to value 259200
Set parameter IterationLimit to value 760000000
Gurobi Optimizer version 9.5.0 build v9.5.0rc5 (linux64)
Thread count: 36 physical cores, 36 logical processors, using up to 36 threads
Optimize a model with 4263 rows, 2900 columns and 11622 nonzeros
Model fingerprint: 0xf6fd62a2
Variable types: 2879 continuous, 21 integer (21 binary)
Coefficient statistics:
  Matrix range     [8e-03, 2e+03]
  Objective range  [1e+00, 1e+00]
  Bounds range     [4e-05, 2e+00]
  RHS range        [4e-05, 1e+00]
Presolve removed 2539 rows and 1460 columns
Presolve time: 0.02s
Presolved: 1724 rows, 1440 columns, 6227 nonzeros
Variable types: 1419 continuous, 21 integer (21 binary)
Found heuristic solution: objective 97.6331530
Root relaxation presolve removed 7 rows and 7 columns
Root relaxation presolved: 1717 rows, 1433 columns, 6213 nonzeros

Root barrier log...

Ordering time: 0.02s

Barrier statistics:
 AA' NZ     : 3.271e+04
 Factor NZ  : 1.809e+05 (roughly 3 MB of memory)
 Factor Ops : 2.939e+07 (less than 1 second per iteration)
 Threads    : 36

                  Objective                Residual
Iter       Primal          Dual         Primal    Dual     Compl     Time
   0   6.94045227e+05 -4.90646369e+07  5.23e+00 6.54e+02  3.47e+04     0s
   1   6.49666031e+04 -1.26007042e+07  5.15e-01 1.38e-10  4.36e+03     0s
   2   2.26659035e+04 -9.14524270e+06  1.55e-01 1.01e-10  2.57e+03     0s
   3   7.29986568e+03 -7.77026083e+05  6.54e-03 3.65e-11  1.97e+02     0s
   4   4.99899863e+03 -2.92532955e+04  1.34e-13 9.45e-11  8.47e+00     0s
   5   7.30239394e+02 -4.61944016e+03  2.87e-13 1.99e-11  1.32e+00     0s
   6   3.06873786e+02 -1.42707773e+03  1.49e-13 6.26e-12  4.29e-01     0s
   7   1.85494623e+02 -4.44608989e+02  7.02e-14 3.64e-12  1.56e-01     0s
   8   1.29376444e+02 -1.64466168e+02  9.26e-14 3.64e-12  7.27e-02     0s
   9   1.00740688e+02 -6.19612935e+01  1.64e-13 3.64e-12  4.02e-02     0s
  10   7.20772210e+01  3.31258597e+01  7.08e-13 1.09e-11  9.63e-03     0s
  11   5.74493044e+01  4.58865399e+01  7.93e-13 7.28e-12  2.86e-03     0s
  12   5.28378358e+01  4.89241126e+01  2.43e-12 1.82e-12  9.68e-04     0s
  13   5.14496971e+01  5.02221234e+01  1.11e-11 3.64e-12  3.04e-04     0s
  14   5.10203326e+01  5.06438329e+01  7.65e-12 7.28e-12  9.31e-05     0s
  15   5.08495056e+01  5.07293936e+01  6.46e-12 3.64e-12  2.97e-05     0s
  16   5.07680627e+01  5.07627166e+01  7.74e-12 7.28e-12  1.32e-06     0s
  17   5.07649696e+01  5.07648775e+01  1.00e-11 3.64e-12  2.28e-08     0s
  18   5.07649657e+01  5.07649646e+01  4.19e-11 3.64e-12  2.62e-10     0s
  19   5.07649654e+01  5.07649654e+01  3.04e-12 7.28e-12  1.17e-12     0s

Barrier solved model in 19 iterations and 0.27 seconds (0.07 work units)
Optimal objective 5.07649654e+01


Root relaxation: objective 5.076497e+01, 202 iterations, 0.24 seconds (0.04 work units)

    Nodes    |    Current Node    |     Objective Bounds      |     Work
 Expl Unexpl |  Obj  Depth IntInf | Incumbent    BestBd   Gap | It/Node Time

     0     0   50.76497    0    6   97.63315   50.76497  48.0%     -    0s
     0     0   51.21939    0    8   97.63315   51.21939  47.5%     -    0s
H    0     0                      85.0377858   51.21939  39.8%     -    0s
     0     0   51.22821    0    8   85.03779   51.22821  39.8%     -    0s
H    0     0                      84.6742244   51.22821  39.5%     -    0s
     0     0   51.71093    0    6   84.67422   51.71093  38.9%     -    0s
H    0     0                      81.1169041   51.71093  36.3%     -    0s
     0     0   51.89704    0    6   81.11690   51.89704  36.0%     -    0s
H    0     0                      78.0982976   51.89704  33.5%     -    0s
     0     0   53.65344    0    6   78.09830   53.65344  31.3%     -    0s
H    0     0                      68.0120400   53.65344  21.1%     -    0s
     0     2   53.65344    0    6   68.01204   53.65344  21.1%     -    0s
H  136   132                      67.6964589   55.43709  18.1%  45.1    1s
H  156   132                      67.5872954   55.43709  18.0%  45.6    1s
H  163   132                      67.2293959   55.43709  17.5%  44.6    1s

Cutting planes:
  Gomory: 3
  MIR: 30

Explored 1582 nodes (49103 simplex iterations) in 3.31 seconds (2.95 work units)
Thread count was 36 (of 36 available processors)

Solution count 9: 67.2294 67.5873 67.6965 ... 97.6332

Optimal solution found (tolerance 1.00e-02)
Best objective 6.722939591222e+01, best bound 6.722939591222e+01, gap 0.0000%

Gurobi 9.5.0 (linux64) logging started Thu Dec  7 22:26:09 2023

Set parameter LogFile to value "/lustre1/scratch/348/vsc34888/JointResearch/05.Models/06.Benchmarking/B.Operation_cost/RTS24_mod1_ByStages_nc10/openStarNet_RTS24_mod1_ByStages_nc10.log"
Set parameter Method to value 2
Set parameter MIPFocus to value 1
Set parameter Presolve to value 2
Set parameter RINS to value 100
Set parameter MIPGap to value 0.01
Set parameter Threads to value 36
Set parameter TimeLimit to value 259200
Set parameter IterationLimit to value 760000000
No parameters matching 'relax_integrality' found
Gurobi Optimizer version 9.5.0 build v9.5.0rc5 (linux64)
Thread count: 36 physical cores, 36 logical processors, using up to 36 threads
Optimize a model with 4263 rows, 2879 columns and 10593 nonzeros
Model fingerprint: 0x27e9c9fe
Coefficient statistics:
  Matrix range     [8e-03, 2e+03]
  Objective range  [1e+00, 1e+00]
  Bounds range     [4e-05, 2e+00]
  RHS range        [4e-05, 2e+01]
Presolve removed 3567 rows and 1635 columns
Presolve time: 0.01s
Presolved: 696 rows, 1268 columns, 3008 nonzeros

Ordering time: 0.00s

Barrier statistics:
 AA' NZ     : 1.564e+03
 Factor NZ  : 6.200e+03 (roughly 1 MB of memory)
 Factor Ops : 8.790e+04 (less than 1 second per iteration)
 Threads    : 1

                  Objective                Residual
Iter       Primal          Dual         Primal    Dual     Compl     Time
   0   1.32519512e+06 -1.57581198e+07  6.76e+00 1.62e+03  5.84e+04     0s
   1   7.97597316e+04 -9.83467198e+06  3.94e-01 4.64e-11  6.99e+03     0s
   2   3.58322805e+04 -2.42562418e+06  1.17e-01 6.54e-11  1.47e+03     0s
   3   1.68902763e+04 -2.37740570e+05  1.59e-03 3.22e-11  1.21e+02     0s
   4   5.44859087e+03 -1.28571052e+04  5.65e-13 4.95e-11  8.63e+00     0s
   5   6.07556454e+02 -2.01604444e+03  3.40e-14 1.46e-11  1.24e+00     0s
   6   2.89864867e+02 -6.75672435e+02  1.49e-14 1.46e-11  4.55e-01     0s
   7   1.68283690e+02 -1.95633775e+02  1.31e-14 1.46e-11  1.72e-01     0s
   8   9.69866914e+01  1.34354885e+01  8.22e-15 7.28e-12  3.94e-02     0s
   9   8.12069428e+01  5.28567239e+01  1.97e-14 1.46e-11  1.34e-02     0s
  10   7.05372512e+01  6.47853385e+01  2.16e-13 1.46e-11  2.71e-03     0s
  11   6.78054265e+01  6.64529390e+01  5.03e-13 1.46e-11  6.38e-04     0s
  12   6.73164331e+01  6.69363831e+01  3.84e-12 7.28e-12  1.79e-04     0s
  13   6.72325879e+01  6.71623466e+01  6.34e-12 3.64e-12  3.31e-05     0s
  14   6.72301831e+01  6.72279259e+01  4.98e-14 1.46e-11  1.06e-06     0s
  15   6.72293967e+01  6.72293944e+01  9.07e-13 7.28e-12  1.07e-09     0s
  16   6.72293959e+01  6.72293959e+01  5.91e-13 1.46e-11  1.12e-15     0s

Barrier solved model in 16 iterations and 0.02 seconds (0.01 work units)
Optimal objective 6.72293959e+01

Crossover log...

     149 DPushes remaining with DInf 0.0000000e+00                 0s

      46 PPushes remaining with PInf 0.0000000e+00                 0s
       0 PPushes remaining with PInf 0.0000000e+00                 0s

  Push phase complete: Pinf 0.0000000e+00, Dinf 5.5688380e-13      0s

Iteration    Objective       Primal Inf.    Dual Inf.      Time
      49    6.7229396e+01   0.000000e+00   0.000000e+00      0s

Use crossover to convert LP symmetric solution to basic solution...
Crossover log...

      33 PPushes remaining with PInf 0.0000000e+00                 0s
       0 PPushes remaining with PInf 0.0000000e+00                 0s

  Push phase complete: Pinf 0.0000000e+00, Dinf 6.0294592e-13      0s

Iteration    Objective       Primal Inf.    Dual Inf.      Time
      85    6.7229396e+01   0.000000e+00   0.000000e+00      0s

Solved in 85 iterations and 0.02 seconds (0.01 work units)
Optimal objective  6.722939591e+01

Gurobi 10.0.0 (win64) logging started Sat Dec  9 11:09:20 2023

Set parameter LogFile to value "C:\Users\ealvarezq\Documents\GitHub\Comillas\Models\JointResearch\05. Models\06.Benchmarking\B.Operation_cost\RTS24_mod1_ByStages_nc10/openStarNet_RTS24_mod1_ByStages_nc10.log"
Set parameter Method to value 2
Set parameter MIPFocus to value 1
Set parameter Presolve to value 2
Set parameter RINS to value 100
Set parameter MIPGap to value 0.01
Set parameter Threads to value 9
Set parameter TimeLimit to value 259200
Set parameter IterationLimit to value 760000000
Gurobi Optimizer version 10.0.0 build v10.0.0rc2 (win64)

CPU model: Intel(R) Core(TM) i7-8700 CPU @ 3.20GHz, instruction set [SSE2|AVX|AVX2]
Thread count: 6 physical cores, 12 logical processors, using up to 9 threads

Optimize a model with 2844 rows, 1937 columns and 7739 nonzeros
Model fingerprint: 0xfc8dc556
Variable types: 1916 continuous, 21 integer (21 binary)
Coefficient statistics:
  Matrix range     [4e-02, 3e+03]
  Objective range  [1e+00, 1e+00]
  Bounds range     [4e-03, 2e+00]
  RHS range        [6e-03, 2e+00]
Presolve removed 1692 rows and 976 columns
Presolve time: 0.01s
Presolved: 1152 rows, 961 columns, 4148 nonzeros
Variable types: 940 continuous, 21 integer (21 binary)
Found heuristic solution: objective 44.1555591
Root relaxation presolve removed 2 rows and 2 columns
Root relaxation presolved: 1150 rows, 959 columns, 4144 nonzeros

Root barrier log...

Ordering time: 0.00s

Barrier statistics:
 AA' NZ     : 1.644e+04
 Factor NZ  : 7.475e+04 (roughly 1 MB of memory)
 Factor Ops : 8.056e+06 (less than 1 second per iteration)
 Threads    : 9

                  Objective                Residual
Iter       Primal          Dual         Primal    Dual     Compl     Time
   0   2.29547581e+06 -2.29644849e+07  2.13e+01 9.76e+02  7.49e+04     0s
   1   6.21623310e+05 -1.33013834e+07  5.73e+00 2.45e+01  1.94e+04     0s
   2   1.30641681e+04 -5.23157534e+06  1.35e-01 1.33e-10  2.17e+03     0s
   3   3.30291528e+03 -1.00226397e+06  2.38e-03 3.41e-11  3.73e+02     0s
   4   2.22101712e+03 -4.72801275e+04  5.39e-06 1.09e-11  1.83e+01     0s
   5   5.55264847e+02 -2.10012879e+03  1.92e-13 7.50e-12  9.81e-01     0s
   6   1.41394737e+02 -4.03306619e+02  8.08e-14 3.81e-12  2.01e-01     0s
   7   6.61861898e+01 -7.55208094e+01  9.77e-14 2.20e-12  5.24e-02     0s
   8   3.69749505e+01 -2.84282115e+01  1.87e-13 1.67e-12  2.42e-02     0s
   9   3.00333201e+01  9.54198886e+00  2.04e-13 4.27e-12  7.57e-03     0s
  10   2.68037826e+01  1.78852973e+01  2.20e-13 1.66e-12  3.30e-03     0s
  11   2.45254755e+01  2.15139023e+01  5.66e-13 2.07e-12  1.11e-03     0s
  12   2.38961213e+01  2.21041780e+01  4.11e-13 1.85e-12  6.62e-04     0s
  13   2.38582856e+01  2.25073857e+01  3.46e-13 1.64e-12  4.99e-04     0s
  14   2.36938133e+01  2.34434964e+01  3.89e-13 3.48e-12  9.25e-05     0s
  15   2.36335027e+01  2.36093624e+01  3.05e-13 5.19e-12  8.92e-06     0s
  16   2.36308839e+01  2.36287141e+01  8.76e-13 4.88e-12  8.02e-07     0s
  17   2.36306676e+01  2.36306257e+01  9.45e-13 4.05e-12  1.55e-08     0s
  18   2.36306612e+01  2.36306611e+01  8.66e-13 6.63e-12  7.98e-12     0s

Barrier solved model in 18 iterations and 0.08 seconds (0.04 work units)
Optimal objective 2.36306612e+01


Root relaxation: objective 2.363066e+01, 116 iterations, 0.06 seconds (0.02 work units)

    Nodes    |    Current Node    |     Objective Bounds      |     Work
 Expl Unexpl |  Obj  Depth IntInf | Incumbent    BestBd   Gap | It/Node Time

     0     0   23.63066    0    9   44.15556   23.63066  46.5%     -    0s
H    0     0                      38.1857543   24.18775  36.7%     -    0s
     0     0   24.18775    0    8   38.18575   24.18775  36.7%     -    0s
     0     0   24.25888    0    8   38.18575   24.25888  36.5%     -    0s
     0     0   24.64286    0    5   38.18575   24.64286  35.5%     -    0s
H    0     0                      36.5293898   24.64286  32.5%     -    0s
     0     0   24.65181    0    6   36.52939   24.65181  32.5%     -    0s
     0     0   24.77167    0    7   36.52939   24.77167  32.2%     -    0s
     0     0   24.82557    0    7   36.52939   24.82557  32.0%     -    0s
H    0     0                      35.2325899   24.82557  29.5%     -    0s
     0     0   25.99908    0    8   35.23259   25.99908  26.2%     -    0s
     0     0   25.99908    0    7   35.23259   25.99908  26.2%     -    0s
     0     0   25.99908    0    8   35.23259   25.99908  26.2%     -    0s
     0     0   26.00984    0    8   35.23259   26.00984  26.2%     -    0s
     0     0   26.32234    0    7   35.23259   26.32234  25.3%     -    0s
H    0     0                      33.4159805   26.32234  21.2%     -    0s
     0     2   26.32234    0    7   33.41598   26.32234  21.2%     -    0s

Cutting planes:
  Gomory: 3
  Implied bound: 1
  MIR: 19
  Relax-and-lift: 1

Explored 566 nodes (12028 simplex iterations) in 0.91 seconds (0.57 work units)
Thread count was 9 (of 12 available processors)

Solution count 5: 33.416 35.2326 36.5294 ... 44.1556

Optimal solution found (tolerance 1.00e-02)
Best objective 3.341598045452e+01, best bound 3.341598045452e+01, gap 0.0000%

Gurobi 10.0.0 (win64) logging started Sat Dec  9 11:09:22 2023

Set parameter LogFile to value "C:\Users\ealvarezq\Documents\GitHub\Comillas\Models\JointResearch\05. Models\06.Benchmarking\B.Operation_cost\RTS24_mod1_ByStages_nc10/openStarNet_RTS24_mod1_ByStages_nc10.log"
Set parameter Method to value 2
Set parameter MIPFocus to value 1
Set parameter Presolve to value 2
Set parameter RINS to value 100
Set parameter MIPGap to value 0.01
Set parameter Threads to value 9
Set parameter TimeLimit to value 259200
Set parameter IterationLimit to value 760000000
No parameters matching 'relax_integrality' found
Gurobi Optimizer version 10.0.0 build v10.0.0rc2 (win64)

CPU model: Intel(R) Core(TM) i7-8700 CPU @ 3.20GHz, instruction set [SSE2|AVX|AVX2]
Thread count: 6 physical cores, 12 logical processors, using up to 9 threads

Optimize a model with 2844 rows, 1916 columns and 7046 nonzeros
Model fingerprint: 0x57d9a944
Coefficient statistics:
  Matrix range     [4e-02, 3e+03]
  Objective range  [1e+00, 1e+00]
  Bounds range     [4e-03, 2e+00]
  RHS range        [6e-03, 1e+01]
Presolve removed 2396 rows and 1116 columns
Presolve time: 0.01s
Presolved: 448 rows, 824 columns, 2024 nonzeros

Ordering time: 0.00s

Barrier statistics:
 AA' NZ     : 1.088e+03
 Factor NZ  : 4.048e+03
 Factor Ops : 5.551e+04 (less than 1 second per iteration)
 Threads    : 1

                  Objective                Residual
Iter       Primal          Dual         Primal    Dual     Compl     Time
   0   7.53134201e+05 -3.07760295e+07  2.64e+00 6.40e+03  8.48e+04     0s
   1   6.16126291e+04 -1.33436776e+07  1.72e-01 1.16e-10  1.20e+04     0s
   2   3.54950981e+04 -3.49265933e+06  5.74e-02 8.73e-11  2.83e+03     0s
   3   2.07393307e+04 -2.20876694e+05  2.89e-14 8.73e-11  1.72e+02     0s
   4   5.38413416e+03 -1.54336108e+04  2.07e-13 6.18e-11  1.48e+01     0s
   5   6.13579786e+02 -1.48065935e+03  6.23e-14 4.12e-11  1.49e+00     0s
   6   2.33623378e+02 -5.22161093e+02  3.59e-14 3.30e-11  5.37e-01     0s
   7   9.33445959e+01 -7.83136449e+01  1.22e-14 2.49e-11  1.22e-01     0s
   8   4.49343079e+01  8.51944179e+00  2.23e-14 4.88e-12  2.59e-02     0s
   9   3.56488707e+01  2.94329016e+01  1.47e-14 2.82e-11  4.41e-03     0s
  10   3.39550741e+01  3.23360658e+01  2.98e-13 1.36e-11  1.15e-03     0s
  11   3.34876681e+01  3.32527915e+01  9.32e-14 2.74e-11  1.67e-04     0s
  12   3.34169271e+01  3.33959812e+01  2.50e-13 3.10e-11  1.49e-05     0s
  13   3.34159829e+01  3.34159600e+01  1.88e-13 2.21e-11  1.62e-08     0s
  14   3.34159805e+01  3.34159804e+01  3.02e-13 2.15e-11  1.62e-11     0s
  15   3.34159805e+01  3.34159805e+01  1.97e-13 2.05e-11  1.62e-14     0s

Barrier solved model in 15 iterations and 0.02 seconds (0.01 work units)
Optimal objective 3.34159805e+01

Crossover log...

     104 DPushes remaining with DInf 0.0000000e+00                 0s
       0 DPushes remaining with DInf 0.0000000e+00                 0s

      11 PPushes remaining with PInf 0.0000000e+00                 0s
       0 PPushes remaining with PInf 0.0000000e+00                 0s

  Push phase complete: Pinf 0.0000000e+00, Dinf 7.1990027e-13      0s

Iteration    Objective       Primal Inf.    Dual Inf.      Time
      15    3.3415980e+01   0.000000e+00   0.000000e+00      0s

Use crossover to convert LP symmetric solution to basic solution...
Crossover log...

       0 DPushes remaining with DInf 0.0000000e+00                 0s

       8 PPushes remaining with PInf 0.0000000e+00                 0s
       0 PPushes remaining with PInf 0.0000000e+00                 0s

  Push phase complete: Pinf 0.0000000e+00, Dinf 3.5727367e-13      0s

Iteration    Objective       Primal Inf.    Dual Inf.      Time
      29    3.3415980e+01   0.000000e+00   0.000000e+00      0s

Solved in 29 iterations and 0.03 seconds (0.01 work units)
Optimal objective  3.341598045e+01
